算例/随机算例/8-6-2(0).txt
1
7
8
7
2

1000
15
1.5
10
1
1
10000

0, 100, 200, 0, 100, 200, 100, 200
0, 200, 200, 100, 100, 100, 0, 0

(0,0)
(1,4)
(2,5)
(3,4)
(4,5)
(4,6)
(5,7)